103 6
13 15 18 14 14 13
1 0 0 0 0 0 0 3 2 3 4
9 0 2 0 1 5 0 4 5 6 7 8
5 0 0 6 0 5 2 3 5 6 8
2 0 0 10 0 9 4 3 5 6 8
10 0 10 7 0 0 9 3 10 11 12
5 10 0 0 5 0 10 2 9 10
2 0 0 6 4 5 6 2 10 11
4 4 2 0 1 0 0 1 10
1 0 9 0 0 3 8 2 13 15
1 6 4 2 0 0 0 2 14 15
10 0 0 4 1 3 0 3 13 15 16
3 4 4 0 4 0 0 3 13 14 15
3 1 1 0 0 7 7 1 18
1 0 0 8 0 0 8 3 18 19 20
6 10 5 2 0 0 0 2 18 20
10 0 7 0 10 9 1 1 17
7 0 0 3 1 0 0 2 21 24
1 4 6 0 0 4 0 1 22
1 0 0 8 5 4 5 2 23 24
5 9 0 4 0 0 0 1 23
5 0 6 10 7 8 0 1 25
6 0 6 0 5 9 0 2 26 27
1 0 0 1 0 0 2 2 27 28
1 0 8 9 0 5 7 2 27 28
2 0 3 4 3 0 0 2 31 32
1 7 0 8 5 6 0 2 29 31
6 1 0 10 4 0 9 1 29
1 7 0 5 0 0 6 2 29 30
1 3 0 2 4 9 2 1 33
3 0 10 1 0 6 0 2 33 36
10 3 0 0 8 0 6 3 34 35 36
1 9 0 2 0 8 0 1 35
2 0 0 0 7 0 0 1 40
8 10 5 0 9 0 0 4 37 38 39 40
6 4 10 8 0 0 0 2 37 40
1 0 2 8 0 0 0 2 38 40
5 0 0 0 3 6 0 3 42 43 44
1 4 10 0 0 4 0 2 42 44
1 0 4 2 0 5 10 1 44
10 3 0 9 4 3 0 2 41 43
9 0 0 3 9 3 0 4 45 46 47 48
1 0 0 6 0 2 0 3 45 46 48
1 8 0 8 4 3 7 3 45 47 48
5 7 0 0 6 0 7 3 46 47 48
8 8 0 0 2 0 1 2 49 50
3 7 10 0 0 0 0 2 50 52
1 0 0 0 6 0 0 1 50
2 0 3 4 9 5 0 2 50 51
1 0 0 5 0 0 8 1 56
5 5 0 8 0 0 10 3 54 55 56
3 3 9 0 0 0 4 4 53 54 55 56
1 0 10 7 0 0 7 2 53 56
1 10 4 0 8 0 2 1 57
3 4 1 10 3 1 0 4 57 58 59 60
1 5 0 10 0 8 0 3 58 59 60
1 9 5 9 0 7 0 3 57 58 59
10 0 4 0 0 0 0 4 61 62 63 64
5 0 0 0 5 0 3 4 61 62 63 64
1 0 9 10 8 0 0 4 61 62 63 64
3 1 3 0 10 0 3 2 62 64
7 0 5 10 3 6 3 2 66 68
3 0 7 4 0 0 0 2 66 67
1 9 4 9 0 10 0 3 65 66 67
1 1 0 0 10 3 9 2 65 66
1 0 0 0 4 2 0 1 69
10 8 0 2 0 1 2 2 71 72
1 0 0 9 0 0 5 1 72
5 0 0 10 3 0 8 1 70
4 0 1 0 3 0 1 3 73 75 76
1 1 9 9 0 0 0 3 74 75 76
10 8 0 0 0 0 2 2 75 76
4 0 0 1 0 7 0 3 73 74 76
2 0 0 9 5 0 1 3 77 78 80
6 0 0 0 9 0 0 2 79 80
1 0 9 0 5 8 0 3 77 78 80
9 0 0 0 2 10 0 2 77 78
1 2 5 0 0 10 0 1 81
9 0 9 3 9 0 10 1 84
1 0 0 0 3 0 0 2 82 83
1 5 8 6 8 0 1 1 82
4 8 0 5 0 9 0 2 87 88
1 0 5 0 0 3 0 2 86 87
1 0 3 0 9 0 0 1 87
10 0 0 0 9 10 0 1 85
6 0 1 7 3 2 8 3 89 91 92
3 3 0 8 8 0 2 4 89 90 91 92
2 0 2 0 1 10 8 2 91 92
5 0 9 0 10 0 0 1 89
1 0 0 10 0 0 6 1 94
1 0 6 7 0 0 0 2 93 94
4 0 4 0 0 0 0 2 94 95
10 3 10 2 0 4 1 4 93 94 95 96
1 2 0 0 3 4 7 1 100
2 0 0 1 0 7 0 1 97
1 0 7 3 5 5 1 2 98 99
4 4 1 0 0 0 0 1 98
3 0 0 0 0 0 10 1 101
10 8 4 7 0 5 0 1 101
2 6 6 7 0 1 0 2 101 102
4 2 0 0 0 0 0 1 102
2 10 0 0 0 7 3 1 103
1 8 10 0 2 0 9 1 103
0 0 0 0 0 0 0 0
